; benchmark generated from python API
(set-info :status unknown)
(declare-datatypes ((RealState 0)) (((RMk1 (rval1 Real)) (RMk2 (rval2 Real)))))
 (assert
 (forall ((|v9:0| Real) )(exists ((|v8:1_st| RealState) (val!1240 Real) )(forall ((|v7:2| Real) )(exists ((|v6:3_st| RealState) (val!1241 Real) )(forall ((|v5:4| Real) )(exists ((|v4:5_st| RealState) (val!1242 Real) )(forall ((|v3:6| Real) )(exists ((|v2:7_st| RealState) (val!1243 Real) )(forall ((|v1:8| Real) )(exists ((|v0:9_st| RealState) (val!1244 Real) )(let ((?x74 (- 5.0)))
 (let ((?x1217 (+ (+ (* 0.0 (rval2 |v8:1_st|)) (* (- 17.0) |v3:6|)) (* 11.0 (rval2 |v2:7_st|)))))
 (let (($x945 (not (= |v0:9_st| (RMk1 val!1244)))))
 (let (($x501 (not (= |v6:3_st| (RMk1 val!1241)))))
 (and (not (= |v8:1_st| (RMk1 val!1240))) $x501 (not (= |v4:5_st| (RMk1 val!1242))) (not (= |v2:7_st| (RMk1 val!1243))) $x945 (<= ?x1217 ?x74)))))))
 )
 )
 )
 )
 )
 )
 )
 )
 )
 )
(check-sat)
